NAME : ch130
TYPE : TSP
COMMENT : 130 city problem (Churritz)
DIMENSION : 130
EDGE_WEIGHT_TYPE : EUC_2D
NODE_COORD_SECTION
1 334.5909245845 161.7809319139
2 397.6446634067 262.8165330708
3 503.8741827107 172.8741151168
4 444.0479403502 384.6491809647
5 311.6137146746 2.0091699828
6 662.8551011379 549.2301263653
7 40.0979030612 187.2375430791
8 526.8941409181 215.7079092185
9 209.1887938487 691.0262291948
10 683.2674131973 414.2096286906
11 280.7494438748 5.9206392047
12 252.7493090080 535.7430385019
13 698.7850451923 348.4413729766
14 678.7574678104 410.7256424438
15 220.0041131179 409.1225812873
16 355.1528556851 76.3912076444
17 296.9724227786 313.1312792361
18 504.5154071733 240.8866564499
19 224.1079496785 358.4872228907
20 470.6801296968 309.6259188406
21 554.2530513223 279.4242466521
22 567.6332684419 352.7162027273
EOF
